
Gurobi 9.5.0 (linux64) logging started Wed Oct 11 11:39:58 2023

Set parameter LogFile to value "/lustre1/scratch/348/vsc34888/JointResearch/05.Models/06.Benchmarking/A.The_full_year_MILP/9n/openStarNet_9n.log"
Set parameter Method to value 2
Set parameter MIPFocus to value 1
Set parameter Presolve to value 2
Set parameter RINS to value 100
Set parameter MIPGap to value 0.01
Set parameter Threads to value 36
Set parameter TimeLimit to value 604800
Set parameter IterationLimit to value 760000000
Gurobi Optimizer version 9.5.0 build v9.5.0rc5 (linux64)
Thread count: 36 physical cores, 36 logical processors, using up to 36 threads
Optimize a model with 2288835 rows, 1210279 columns and 7094266 nonzeros
Model fingerprint: 0x6f44808e
Variable types: 1210243 continuous, 36 integer (36 binary)
Coefficient statistics:
  Matrix range     [7e-04, 7e+01]
  Objective range  [1e+00, 1e+00]
  Bounds range     [4e-04, 2e+00]
  RHS range        [4e-04, 1e+00]
Presolve removed 742563 rows and 375652 columns (presolve time = 5s) ...
Presolve removed 742563 rows and 375652 columns (presolve time = 10s) ...
Presolve removed 742563 rows and 375652 columns (presolve time = 15s) ...
Presolve removed 742563 rows and 375652 columns
Presolve time: 15.69s
Presolved: 1546272 rows, 834627 columns, 5473407 nonzeros
Variable types: 834591 continuous, 36 integer (36 binary)
Root relaxation presolved: 1546272 rows, 834627 columns, 5473407 nonzeros

Root barrier log...

Ordering time: 0.51s

Barrier statistics:
 Dense cols : 36
 AA' NZ     : 2.081e+07
 Factor NZ  : 4.702e+07 (roughly 1.3 GB of memory)
 Factor Ops : 2.386e+09 (less than 1 second per iteration)
 Threads    : 35

                  Objective                Residual
Iter       Primal          Dual         Primal    Dual     Compl     Time
   0   3.92213297e+05 -1.99809273e+07  6.62e+00 5.96e-01  2.05e+01    33s
   1   6.05491210e+04 -5.88935790e+06  7.75e-01 1.48e-08  2.74e+00    34s
   2   1.34100757e+04 -9.30064502e+05  9.43e-03 9.12e-09  3.14e-01    35s
   3   3.19647405e+03 -2.20151914e+04  1.05e-05 2.04e-10  8.32e-03    36s
   4   9.14634654e+02 -3.52107464e+03  6.47e-09 3.09e-11  1.46e-03    37s
   5   6.29706331e+02 -1.63624592e+03  2.94e-09 1.45e-11  7.47e-04    37s
   6   4.40229490e+02 -9.64662178e+02  1.63e-09 8.03e-12  4.63e-04    38s
   7   2.98531784e+02 -5.09388803e+02  8.37e-10 4.91e-12  2.66e-04    39s
   8   1.66682907e+02 -1.94358126e+02  2.50e-10 1.81e-12  1.19e-04    40s
   9   1.43894240e+02 -4.83873800e+01  1.76e-10 1.11e-12  6.34e-05    41s
  10   1.35342248e+02 -2.32997549e+01  1.50e-10 7.60e-13  5.23e-05    42s
  11   1.14964409e+02  5.68304014e+00  8.64e-11 5.97e-13  3.60e-05    43s
  12   1.02245901e+02  2.20088337e+01  4.89e-11 7.96e-13  2.65e-05    44s
  13   9.82632272e+01  3.51768753e+01  3.74e-11 8.24e-13  2.08e-05    45s
  14   9.72561709e+01  3.66863657e+01  3.47e-11 4.76e-13  2.00e-05    46s
  15   9.36999714e+01  4.28619939e+01  4.65e-11 4.58e-13  1.68e-05    47s
  16   9.27916708e+01  5.03692483e+01  4.16e-11 6.04e-13  1.40e-05    48s
  17   9.17286188e+01  5.52726433e+01  3.61e-11 3.06e-13  1.20e-05    49s
  18   9.11979329e+01  5.58309688e+01  9.75e-11 5.97e-13  1.17e-05    50s
  19   8.98617809e+01  6.16349337e+01  2.25e-07 9.24e-13  9.31e-06    51s
  20   8.93310708e+01  6.42640833e+01  2.03e-07 8.17e-13  8.27e-06    53s
  21   8.83929751e+01  6.78353255e+01  1.71e-07 6.25e-13  6.78e-06    54s
  22   8.78107400e+01  6.99719049e+01  1.44e-07 4.55e-13  5.88e-06    55s
  23   8.73411710e+01  7.16664155e+01  1.22e-07 6.39e-13  5.17e-06    56s
  24   8.69546502e+01  7.37785667e+01  1.05e-07 3.34e-13  4.35e-06    58s
  25   8.64672362e+01  7.53965267e+01  8.28e-08 1.56e-13  3.65e-06    59s
  26   8.62650986e+01  7.60104609e+01  7.44e-08 3.84e-13  3.38e-06    60s
  27   8.60500940e+01  7.69036810e+01  6.49e-08 2.98e-13  3.02e-06    61s
  28   8.58364028e+01  7.80612287e+01  5.57e-08 2.13e-13  2.56e-06    62s
  29   8.56260071e+01  7.84466766e+01  4.73e-08 3.62e-13  2.37e-06    63s
  30   8.55614375e+01  7.86735907e+01  4.45e-08 3.06e-13  2.27e-06    64s
  31   8.53929028e+01  7.96417255e+01  3.72e-08 1.78e-13  1.90e-06    66s
  32   8.52502920e+01  8.00152868e+01  3.17e-08 3.62e-13  1.73e-06    67s
  33   8.51706954e+01  8.02505526e+01  2.86e-08 3.34e-13  1.62e-06    68s
  34   8.51012335e+01  8.05460761e+01  2.60e-08 1.99e-13  1.50e-06    69s
  35   8.50235145e+01  8.09024909e+01  2.30e-08 1.02e-12  1.36e-06    70s
  36   8.49426210e+01  8.11115820e+01  1.99e-08 3.06e-13  1.26e-06    71s
  37   8.49151894e+01  8.13608902e+01  1.89e-08 1.07e-12  1.17e-06    72s
  38   8.48436792e+01  8.16180780e+01  1.62e-08 5.19e-13  1.06e-06    73s
  39   8.48291341e+01  8.17096310e+01  1.56e-08 7.32e-13  1.03e-06    74s
  40   8.47845481e+01  8.19612949e+01  2.51e-08 4.90e-13  9.31e-07    76s
  41   8.47511116e+01  8.20655761e+01  2.43e-08 7.53e-13  8.86e-07    77s
  42   8.47156156e+01  8.21564066e+01  2.33e-08 2.98e-13  8.44e-07    78s
  43   8.46984948e+01  8.22416200e+01  2.30e-08 2.91e-13  8.10e-07    80s
  44   8.46787686e+01  8.23434815e+01  2.07e-08 2.56e-13  7.70e-07    81s
  45   8.46314860e+01  8.27632577e+01  1.84e-08 9.88e-13  6.16e-07    82s
  46   8.46085240e+01  8.28408715e+01  1.86e-08 3.27e-13  5.83e-07    83s
  47   8.45649906e+01  8.31073304e+01  1.63e-08 2.59e-12  4.81e-07    85s
  48   8.45571891e+01  8.34822586e+01  1.56e-08 1.51e-12  3.55e-07    86s
  49   8.45150486e+01  8.35988973e+01  1.21e-08 2.64e-12  3.02e-07    87s
  50   8.45014272e+01  8.36227990e+01  1.14e-08 2.56e-12  2.90e-07    89s
  51   8.44971860e+01  8.36909241e+01  1.11e-08 2.38e-12  2.66e-07    90s
  52   8.44861952e+01  8.38326072e+01  1.13e-08 1.19e-12  2.16e-07    92s
  53   8.44816754e+01  8.38682321e+01  1.13e-08 1.06e-12  2.02e-07    93s
  54   8.44757501e+01  8.39070445e+01  1.03e-08 1.19e-12  1.88e-07    95s
  55   8.44671190e+01  8.39491750e+01  9.15e-09 2.97e-12  1.71e-07    96s
  56   8.44461667e+01  8.41361916e+01  7.66e-09 6.24e-12  1.02e-07    98s
  57   8.44434591e+01  8.41905885e+01  7.11e-09 4.66e-12  8.34e-08    99s
  58   8.44356566e+01  8.42024989e+01  5.51e-09 4.48e-12  7.69e-08   101s
  59   8.44343644e+01  8.42246986e+01  5.24e-09 3.99e-12  6.92e-08   103s
  60   8.44241219e+01  8.42667476e+01  3.15e-09 2.89e-12  5.19e-08   104s
  61   8.44195303e+01  8.43234784e+01  2.32e-09 1.63e-12  3.17e-08   106s
  62   8.44154672e+01  8.43792641e+01  1.14e-09 5.97e-11  1.19e-08   107s
  63   8.44148610e+01  8.43814788e+01  1.04e-09 5.45e-11  1.10e-08   109s
  64   8.44123749e+01  8.43898455e+01  6.21e-10 3.72e-11  7.43e-09   110s
  65   8.44113218e+01  8.43982853e+01  4.36e-10 2.11e-11  4.30e-09   111s
  66   8.44089693e+01  8.44082240e+01  4.66e-09 1.03e-11  2.46e-10   112s
  67   8.44087039e+01  8.44086489e+01  1.26e-09 5.83e-13  1.81e-11   113s
  68   8.44086913e+01  8.44086913e+01  2.70e-11 1.42e-11  2.08e-15   114s

Barrier solved model in 68 iterations and 113.91 seconds (82.44 work units)
Optimal objective 8.44086913e+01


Root crossover log...

  364167 DPushes remaining with DInf 0.0000000e+00               115s
       1 DPushes remaining with DInf 0.0000000e+00               116s
       0 DPushes remaining with DInf 0.0000000e+00               116s

   65220 PPushes remaining with PInf 0.0000000e+00               116s
       0 PPushes remaining with PInf 0.0000000e+00               119s

  Push phase complete: Pinf 0.0000000e+00, Dinf 1.9087343e-12    119s


Root simplex log...

Iteration    Objective       Primal Inf.    Dual Inf.      Time
   73672    8.4408691e+01   0.000000e+00   0.000000e+00    120s
   73672    8.4408691e+01   0.000000e+00   0.000000e+00    121s

Root relaxation: objective 8.440869e+01, 73672 iterations, 96.89 seconds (74.17 work units)

    Nodes    |    Current Node    |     Objective Bounds      |     Work
 Expl Unexpl |  Obj  Depth IntInf | Incumbent    BestBd   Gap | It/Node Time

     0     0   84.40869    0    6          -   84.40869      -     -  122s
H    0     0                     915.4684057   84.40869  90.8%     -  133s
     0     0   91.87703    0    1  915.46841   91.87703  90.0%     -  328s
H    0     0                      94.1188795   91.87703  2.38%     -  346s
     0     0   92.11906    0    1   94.11888   92.11906  2.12%     -  377s
     0     0   92.11906    0    1   94.11888   92.11906  2.12%     -  388s
     0     0   92.57633    0    3   94.11888   92.57633  1.64%     -  588s
     0     0   92.57633    0    3   94.11888   92.57633  1.64%     -  605s
     0     0   92.57633    0    1   94.11888   92.57633  1.64%     -  643s
H    0     0                      92.6657983   92.57633  0.10%     -  648s

Cutting planes:
  Gomory: 1
  MIR: 7565
  Relax-and-lift: 30

Explored 1 nodes (235442 simplex iterations) in 648.88 seconds (677.47 work units)
Thread count was 36 (of 36 available processors)

Solution count 4: 92.6658 94.1189 915.468 926.493 

Optimal solution found (tolerance 1.00e-02)
Best objective 9.266579832487e+01, best bound 9.257632801202e+01, gap 0.0966%

Gurobi 9.5.0 (linux64) logging started Wed Oct 11 11:52:03 2023

Set parameter LogFile to value "/lustre1/scratch/348/vsc34888/JointResearch/05.Models/06.Benchmarking/A.The_full_year_MILP/9n/openStarNet_9n.log"
Set parameter Method to value 2
Set parameter MIPFocus to value 1
Set parameter Presolve to value 2
Set parameter RINS to value 100
Set parameter MIPGap to value 0.01
Set parameter Threads to value 36
Set parameter TimeLimit to value 604800
Set parameter IterationLimit to value 760000000
No parameters matching 'relax_integrality' found
Gurobi Optimizer version 9.5.0 build v9.5.0rc5 (linux64)
Thread count: 36 physical cores, 36 logical processors, using up to 36 threads
Optimize a model with 2288835 rows, 1210243 columns and 5836246 nonzeros
Model fingerprint: 0xc6f5338e
Coefficient statistics:
  Matrix range     [7e-04, 7e+01]
  Objective range  [1e+00, 1e+00]
  Bounds range     [4e-04, 2e+00]
  RHS range        [4e-04, 2e+01]
Presolve removed 1974339 rows and 663940 columns
Presolve time: 2.51s
Presolved: 314496 rows, 546303 columns, 1201503 nonzeros

Ordering time: 0.04s

Barrier statistics:
 AA' NZ     : 8.823e+05
 Factor NZ  : 3.232e+06 (roughly 400 MB of memory)
 Factor Ops : 3.982e+07 (less than 1 second per iteration)
 Threads    : 36

                  Objective                Residual
Iter       Primal          Dual         Primal    Dual     Compl     Time
   0   4.29966197e+05 -5.59502904e+06  4.33e+00 2.66e-15  1.15e+01     3s
   1   6.12318856e+04 -1.14179546e+06  5.09e-01 1.09e-14  1.44e+00     3s
   2   8.97695898e+03 -1.79079546e+05  3.35e-02 9.61e-15  1.67e-01     3s
   3   1.46721295e+03 -3.72608220e+03  1.10e-05 8.88e-15  4.34e-03     3s
   4   6.71803770e+02 -8.51408217e+02  1.12e-08 6.22e-15  1.27e-03     4s
   5   4.42100323e+02 -3.58107368e+02  6.27e-09 5.33e-15  6.68e-04     4s
   6   2.96653280e+02 -1.71621341e+02  3.49e-09 5.33e-15  3.91e-04     4s
   7   2.07733620e+02 -5.87545067e+01  1.89e-09 3.55e-15  2.23e-04     4s
   8   1.55224370e+02  9.86313026e+00  9.87e-10 3.55e-15  1.21e-04     4s
   9   1.16865199e+02  6.23458409e+01  3.58e-10 5.33e-15  4.55e-05     4s
  10   1.03566516e+02  7.99326641e+01  1.55e-10 5.33e-15  1.97e-05     4s
  11   9.53755243e+01  8.78338393e+01  3.64e-11 5.33e-15  6.30e-06     4s
  12   9.33043743e+01  9.18669892e+01  8.99e-12 5.33e-15  1.20e-06     5s
  13   9.28657332e+01  9.24577003e+01  5.14e-11 5.33e-15  3.41e-07     5s
  14   9.27269562e+01  9.25880001e+01  2.49e-10 3.55e-15  1.16e-07     5s
  15   9.26840957e+01  9.26391812e+01  2.21e-10 3.55e-15  3.75e-08     5s
  16   9.26690743e+01  9.26573332e+01  3.22e-10 5.33e-15  9.81e-09     5s
  17   9.26660613e+01  9.26636872e+01  2.35e-10 5.33e-15  1.98e-09     5s
  18   9.26658019e+01  9.26657918e+01  5.07e-10 5.33e-15  8.38e-12     6s
  19   9.26657983e+01  9.26657983e+01  4.31e-11 5.33e-15  9.86e-18     6s

Barrier solved model in 19 iterations and 5.69 seconds (5.57 work units)
Optimal objective 9.26657983e+01

Crossover log...

  103087 DPushes remaining with DInf 0.0000000e+00                 6s
       0 DPushes remaining with DInf 0.0000000e+00                 6s

   15323 PPushes remaining with PInf 0.0000000e+00                 6s
       0 PPushes remaining with PInf 0.0000000e+00                10s

  Push phase complete: Pinf 0.0000000e+00, Dinf 8.3301991e-14     10s

Iteration    Objective       Primal Inf.    Dual Inf.      Time
   21049    9.2665798e+01   0.000000e+00   0.000000e+00     14s

Solved in 21049 iterations and 13.71 seconds (13.14 work units)
Optimal objective  9.266579832e+01
